p cnf 99 1617
1 2 3 0
4 5 6 0
7 8 9 0
10 11 12 0
13 14 15 0
16 17 18 0
19 20 21 0
22 23 24 0
25 26 27 0
28 29 30 0
31 32 33 0
34 35 36 0
37 38 39 0
40 41 42 0
43 44 45 0
46 47 48 0
49 50 51 0
52 53 54 0
55 56 57 0
58 59 60 0
61 62 63 0
64 65 66 0
67 68 69 0
70 71 72 0
73 74 75 0
76 77 78 0
79 80 81 0
82 83 84 0
85 86 87 0
88 89 90 0
91 92 93 0
94 95 96 0
97 98 99 0
-1 -4 0
-1 -7 0
-1 -10 0
-1 -13 0
-1 -16 0
-1 -19 0
-1 -22 0
-1 -25 0
-1 -28 0
-1 -31 0
-1 -34 0
-1 -37 0
-1 -40 0
-1 -43 0
-1 -46 0
-1 -49 0
-1 -52 0
-1 -55 0
-1 -58 0
-1 -61 0
-1 -64 0
-1 -67 0
-1 -70 0
-1 -73 0
-1 -76 0
-1 -79 0
-1 -82 0
-1 -85 0
-1 -88 0
-1 -91 0
-1 -94 0
-1 -97 0
-4 -7 0
-4 -10 0
-4 -13 0
-4 -16 0
-4 -19 0
-4 -22 0
-4 -25 0
-4 -28 0
-4 -31 0
-4 -34 0
-4 -37 0
-4 -40 0
-4 -43 0
-4 -46 0
-4 -49 0
-4 -52 0
-4 -55 0
-4 -58 0
-4 -61 0
-4 -64 0
-4 -67 0
-4 -70 0
-4 -73 0
-4 -76 0
-4 -79 0
-4 -82 0
-4 -85 0
-4 -88 0
-4 -91 0
-4 -94 0
-4 -97 0
-7 -10 0
-7 -13 0
-7 -16 0
-7 -19 0
-7 -22 0
-7 -25 0
-7 -28 0
-7 -31 0
-7 -34 0
-7 -37 0
-7 -40 0
-7 -43 0
-7 -46 0
-7 -49 0
-7 -52 0
-7 -55 0
-7 -58 0
-7 -61 0
-7 -64 0
-7 -67 0
-7 -70 0
-7 -73 0
-7 -76 0
-7 -79 0
-7 -82 0
-7 -85 0
-7 -88 0
-7 -91 0
-7 -94 0
-7 -97 0
-10 -13 0
-10 -16 0
-10 -19 0
-10 -22 0
-10 -25 0
-10 -28 0
-10 -31 0
-10 -34 0
-10 -37 0
-10 -40 0
-10 -43 0
-10 -46 0
-10 -49 0
-10 -52 0
-10 -55 0
-10 -58 0
-10 -61 0
-10 -64 0
-10 -67 0
-10 -70 0
-10 -73 0
-10 -76 0
-10 -79 0
-10 -82 0
-10 -85 0
-10 -88 0
-10 -91 0
-10 -94 0
-10 -97 0
-13 -16 0
-13 -19 0
-13 -22 0
-13 -25 0
-13 -28 0
-13 -31 0
-13 -34 0
-13 -37 0
-13 -40 0
-13 -43 0
-13 -46 0
-13 -49 0
-13 -52 0
-13 -55 0
-13 -58 0
-13 -61 0
-13 -64 0
-13 -67 0
-13 -70 0
-13 -73 0
-13 -76 0
-13 -79 0
-13 -82 0
-13 -85 0
-13 -88 0
-13 -91 0
-13 -94 0
-13 -97 0
-16 -19 0
-16 -22 0
-16 -25 0
-16 -28 0
-16 -31 0
-16 -34 0
-16 -37 0
-16 -40 0
-16 -43 0
-16 -46 0
-16 -49 0
-16 -52 0
-16 -55 0
-16 -58 0
-16 -61 0
-16 -64 0
-16 -67 0
-16 -70 0
-16 -73 0
-16 -76 0
-16 -79 0
-16 -82 0
-16 -85 0
-16 -88 0
-16 -91 0
-16 -94 0
-16 -97 0
-19 -22 0
-19 -25 0
-19 -28 0
-19 -31 0
-19 -34 0
-19 -37 0
-19 -40 0
-19 -43 0
-19 -46 0
-19 -49 0
-19 -52 0
-19 -55 0
-19 -58 0
-19 -61 0
-19 -64 0
-19 -67 0
-19 -70 0
-19 -73 0
-19 -76 0
-19 -79 0
-19 -82 0
-19 -85 0
-19 -88 0
-19 -91 0
-19 -94 0
-19 -97 0
-22 -25 0
-22 -28 0
-22 -31 0
-22 -34 0
-22 -37 0
-22 -40 0
-22 -43 0
-22 -46 0
-22 -49 0
-22 -52 0
-22 -55 0
-22 -58 0
-22 -61 0
-22 -64 0
-22 -67 0
-22 -70 0
-22 -73 0
-22 -76 0
-22 -79 0
-22 -82 0
-22 -85 0
-22 -88 0
-22 -91 0
-22 -94 0
-22 -97 0
-25 -28 0
-25 -31 0
-25 -34 0
-25 -37 0
-25 -40 0
-25 -43 0
-25 -46 0
-25 -49 0
-25 -52 0
-25 -55 0
-25 -58 0
-25 -61 0
-25 -64 0
-25 -67 0
-25 -70 0
-25 -73 0
-25 -76 0
-25 -79 0
-25 -82 0
-25 -85 0
-25 -88 0
-25 -91 0
-25 -94 0
-25 -97 0
-28 -31 0
-28 -34 0
-28 -37 0
-28 -40 0
-28 -43 0
-28 -46 0
-28 -49 0
-28 -52 0
-28 -55 0
-28 -58 0
-28 -61 0
-28 -64 0
-28 -67 0
-28 -70 0
-28 -73 0
-28 -76 0
-28 -79 0
-28 -82 0
-28 -85 0
-28 -88 0
-28 -91 0
-28 -94 0
-28 -97 0
-31 -34 0
-31 -37 0
-31 -40 0
-31 -43 0
-31 -46 0
-31 -49 0
-31 -52 0
-31 -55 0
-31 -58 0
-31 -61 0
-31 -64 0
-31 -67 0
-31 -70 0
-31 -73 0
-31 -76 0
-31 -79 0
-31 -82 0
-31 -85 0
-31 -88 0
-31 -91 0
-31 -94 0
-31 -97 0
-34 -37 0
-34 -40 0
-34 -43 0
-34 -46 0
-34 -49 0
-34 -52 0
-34 -55 0
-34 -58 0
-34 -61 0
-34 -64 0
-34 -67 0
-34 -70 0
-34 -73 0
-34 -76 0
-34 -79 0
-34 -82 0
-34 -85 0
-34 -88 0
-34 -91 0
-34 -94 0
-34 -97 0
-37 -40 0
-37 -43 0
-37 -46 0
-37 -49 0
-37 -52 0
-37 -55 0
-37 -58 0
-37 -61 0
-37 -64 0
-37 -67 0
-37 -70 0
-37 -73 0
-37 -76 0
-37 -79 0
-37 -82 0
-37 -85 0
-37 -88 0
-37 -91 0
-37 -94 0
-37 -97 0
-40 -43 0
-40 -46 0
-40 -49 0
-40 -52 0
-40 -55 0
-40 -58 0
-40 -61 0
-40 -64 0
-40 -67 0
-40 -70 0
-40 -73 0
-40 -76 0
-40 -79 0
-40 -82 0
-40 -85 0
-40 -88 0
-40 -91 0
-40 -94 0
-40 -97 0
-43 -46 0
-43 -49 0
-43 -52 0
-43 -55 0
-43 -58 0
-43 -61 0
-43 -64 0
-43 -67 0
-43 -70 0
-43 -73 0
-43 -76 0
-43 -79 0
-43 -82 0
-43 -85 0
-43 -88 0
-43 -91 0
-43 -94 0
-43 -97 0
-46 -49 0
-46 -52 0
-46 -55 0
-46 -58 0
-46 -61 0
-46 -64 0
-46 -67 0
-46 -70 0
-46 -73 0
-46 -76 0
-46 -79 0
-46 -82 0
-46 -85 0
-46 -88 0
-46 -91 0
-46 -94 0
-46 -97 0
-49 -52 0
-49 -55 0
-49 -58 0
-49 -61 0
-49 -64 0
-49 -67 0
-49 -70 0
-49 -73 0
-49 -76 0
-49 -79 0
-49 -82 0
-49 -85 0
-49 -88 0
-49 -91 0
-49 -94 0
-49 -97 0
-52 -55 0
-52 -58 0
-52 -61 0
-52 -64 0
-52 -67 0
-52 -70 0
-52 -73 0
-52 -76 0
-52 -79 0
-52 -82 0
-52 -85 0
-52 -88 0
-52 -91 0
-52 -94 0
-52 -97 0
-55 -58 0
-55 -61 0
-55 -64 0
-55 -67 0
-55 -70 0
-55 -73 0
-55 -76 0
-55 -79 0
-55 -82 0
-55 -85 0
-55 -88 0
-55 -91 0
-55 -94 0
-55 -97 0
-58 -61 0
-58 -64 0
-58 -67 0
-58 -70 0
-58 -73 0
-58 -76 0
-58 -79 0
-58 -82 0
-58 -85 0
-58 -88 0
-58 -91 0
-58 -94 0
-58 -97 0
-61 -64 0
-61 -67 0
-61 -70 0
-61 -73 0
-61 -76 0
-61 -79 0
-61 -82 0
-61 -85 0
-61 -88 0
-61 -91 0
-61 -94 0
-61 -97 0
-64 -67 0
-64 -70 0
-64 -73 0
-64 -76 0
-64 -79 0
-64 -82 0
-64 -85 0
-64 -88 0
-64 -91 0
-64 -94 0
-64 -97 0
-67 -70 0
-67 -73 0
-67 -76 0
-67 -79 0
-67 -82 0
-67 -85 0
-67 -88 0
-67 -91 0
-67 -94 0
-67 -97 0
-70 -73 0
-70 -76 0
-70 -79 0
-70 -82 0
-70 -85 0
-70 -88 0
-70 -91 0
-70 -94 0
-70 -97 0
-73 -76 0
-73 -79 0
-73 -82 0
-73 -85 0
-73 -88 0
-73 -91 0
-73 -94 0
-73 -97 0
-76 -79 0
-76 -82 0
-76 -85 0
-76 -88 0
-76 -91 0
-76 -94 0
-76 -97 0
-79 -82 0
-79 -85 0
-79 -88 0
-79 -91 0
-79 -94 0
-79 -97 0
-82 -85 0
-82 -88 0
-82 -91 0
-82 -94 0
-82 -97 0
-85 -88 0
-85 -91 0
-85 -94 0
-85 -97 0
-88 -91 0
-88 -94 0
-88 -97 0
-91 -94 0
-91 -97 0
-94 -97 0
-2 -5 0
-2 -8 0
-2 -11 0
-2 -14 0
-2 -17 0
-2 -20 0
-2 -23 0
-2 -26 0
-2 -29 0
-2 -32 0
-2 -35 0
-2 -38 0
-2 -41 0
-2 -44 0
-2 -47 0
-2 -50 0
-2 -53 0
-2 -56 0
-2 -59 0
-2 -62 0
-2 -65 0
-2 -68 0
-2 -71 0
-2 -74 0
-2 -77 0
-2 -80 0
-2 -83 0
-2 -86 0
-2 -89 0
-2 -92 0
-2 -95 0
-2 -98 0
-5 -8 0
-5 -11 0
-5 -14 0
-5 -17 0
-5 -20 0
-5 -23 0
-5 -26 0
-5 -29 0
-5 -32 0
-5 -35 0
-5 -38 0
-5 -41 0
-5 -44 0
-5 -47 0
-5 -50 0
-5 -53 0
-5 -56 0
-5 -59 0
-5 -62 0
-5 -65 0
-5 -68 0
-5 -71 0
-5 -74 0
-5 -77 0
-5 -80 0
-5 -83 0
-5 -86 0
-5 -89 0
-5 -92 0
-5 -95 0
-5 -98 0
-8 -11 0
-8 -14 0
-8 -17 0
-8 -20 0
-8 -23 0
-8 -26 0
-8 -29 0
-8 -32 0
-8 -35 0
-8 -38 0
-8 -41 0
-8 -44 0
-8 -47 0
-8 -50 0
-8 -53 0
-8 -56 0
-8 -59 0
-8 -62 0
-8 -65 0
-8 -68 0
-8 -71 0
-8 -74 0
-8 -77 0
-8 -80 0
-8 -83 0
-8 -86 0
-8 -89 0
-8 -92 0
-8 -95 0
-8 -98 0
-11 -14 0
-11 -17 0
-11 -20 0
-11 -23 0
-11 -26 0
-11 -29 0
-11 -32 0
-11 -35 0
-11 -38 0
-11 -41 0
-11 -44 0
-11 -47 0
-11 -50 0
-11 -53 0
-11 -56 0
-11 -59 0
-11 -62 0
-11 -65 0
-11 -68 0
-11 -71 0
-11 -74 0
-11 -77 0
-11 -80 0
-11 -83 0
-11 -86 0
-11 -89 0
-11 -92 0
-11 -95 0
-11 -98 0
-14 -17 0
-14 -20 0
-14 -23 0
-14 -26 0
-14 -29 0
-14 -32 0
-14 -35 0
-14 -38 0
-14 -41 0
-14 -44 0
-14 -47 0
-14 -50 0
-14 -53 0
-14 -56 0
-14 -59 0
-14 -62 0
-14 -65 0
-14 -68 0
-14 -71 0
-14 -74 0
-14 -77 0
-14 -80 0
-14 -83 0
-14 -86 0
-14 -89 0
-14 -92 0
-14 -95 0
-14 -98 0
-17 -20 0
-17 -23 0
-17 -26 0
-17 -29 0
-17 -32 0
-17 -35 0
-17 -38 0
-17 -41 0
-17 -44 0
-17 -47 0
-17 -50 0
-17 -53 0
-17 -56 0
-17 -59 0
-17 -62 0
-17 -65 0
-17 -68 0
-17 -71 0
-17 -74 0
-17 -77 0
-17 -80 0
-17 -83 0
-17 -86 0
-17 -89 0
-17 -92 0
-17 -95 0
-17 -98 0
-20 -23 0
-20 -26 0
-20 -29 0
-20 -32 0
-20 -35 0
-20 -38 0
-20 -41 0
-20 -44 0
-20 -47 0
-20 -50 0
-20 -53 0
-20 -56 0
-20 -59 0
-20 -62 0
-20 -65 0
-20 -68 0
-20 -71 0
-20 -74 0
-20 -77 0
-20 -80 0
-20 -83 0
-20 -86 0
-20 -89 0
-20 -92 0
-20 -95 0
-20 -98 0
-23 -26 0
-23 -29 0
-23 -32 0
-23 -35 0
-23 -38 0
-23 -41 0
-23 -44 0
-23 -47 0
-23 -50 0
-23 -53 0
-23 -56 0
-23 -59 0
-23 -62 0
-23 -65 0
-23 -68 0
-23 -71 0
-23 -74 0
-23 -77 0
-23 -80 0
-23 -83 0
-23 -86 0
-23 -89 0
-23 -92 0
-23 -95 0
-23 -98 0
-26 -29 0
-26 -32 0
-26 -35 0
-26 -38 0
-26 -41 0
-26 -44 0
-26 -47 0
-26 -50 0
-26 -53 0
-26 -56 0
-26 -59 0
-26 -62 0
-26 -65 0
-26 -68 0
-26 -71 0
-26 -74 0
-26 -77 0
-26 -80 0
-26 -83 0
-26 -86 0
-26 -89 0
-26 -92 0
-26 -95 0
-26 -98 0
-29 -32 0
-29 -35 0
-29 -38 0
-29 -41 0
-29 -44 0
-29 -47 0
-29 -50 0
-29 -53 0
-29 -56 0
-29 -59 0
-29 -62 0
-29 -65 0
-29 -68 0
-29 -71 0
-29 -74 0
-29 -77 0
-29 -80 0
-29 -83 0
-29 -86 0
-29 -89 0
-29 -92 0
-29 -95 0
-29 -98 0
-32 -35 0
-32 -38 0
-32 -41 0
-32 -44 0
-32 -47 0
-32 -50 0
-32 -53 0
-32 -56 0
-32 -59 0
-32 -62 0
-32 -65 0
-32 -68 0
-32 -71 0
-32 -74 0
-32 -77 0
-32 -80 0
-32 -83 0
-32 -86 0
-32 -89 0
-32 -92 0
-32 -95 0
-32 -98 0
-35 -38 0
-35 -41 0
-35 -44 0
-35 -47 0
-35 -50 0
-35 -53 0
-35 -56 0
-35 -59 0
-35 -62 0
-35 -65 0
-35 -68 0
-35 -71 0
-35 -74 0
-35 -77 0
-35 -80 0
-35 -83 0
-35 -86 0
-35 -89 0
-35 -92 0
-35 -95 0
-35 -98 0
-38 -41 0
-38 -44 0
-38 -47 0
-38 -50 0
-38 -53 0
-38 -56 0
-38 -59 0
-38 -62 0
-38 -65 0
-38 -68 0
-38 -71 0
-38 -74 0
-38 -77 0
-38 -80 0
-38 -83 0
-38 -86 0
-38 -89 0
-38 -92 0
-38 -95 0
-38 -98 0
-41 -44 0
-41 -47 0
-41 -50 0
-41 -53 0
-41 -56 0
-41 -59 0
-41 -62 0
-41 -65 0
-41 -68 0
-41 -71 0
-41 -74 0
-41 -77 0
-41 -80 0
-41 -83 0
-41 -86 0
-41 -89 0
-41 -92 0
-41 -95 0
-41 -98 0
-44 -47 0
-44 -50 0
-44 -53 0
-44 -56 0
-44 -59 0
-44 -62 0
-44 -65 0
-44 -68 0
-44 -71 0
-44 -74 0
-44 -77 0
-44 -80 0
-44 -83 0
-44 -86 0
-44 -89 0
-44 -92 0
-44 -95 0
-44 -98 0
-47 -50 0
-47 -53 0
-47 -56 0
-47 -59 0
-47 -62 0
-47 -65 0
-47 -68 0
-47 -71 0
-47 -74 0
-47 -77 0
-47 -80 0
-47 -83 0
-47 -86 0
-47 -89 0
-47 -92 0
-47 -95 0
-47 -98 0
-50 -53 0
-50 -56 0
-50 -59 0
-50 -62 0
-50 -65 0
-50 -68 0
-50 -71 0
-50 -74 0
-50 -77 0
-50 -80 0
-50 -83 0
-50 -86 0
-50 -89 0
-50 -92 0
-50 -95 0
-50 -98 0
-53 -56 0
-53 -59 0
-53 -62 0
-53 -65 0
-53 -68 0
-53 -71 0
-53 -74 0
-53 -77 0
-53 -80 0
-53 -83 0
-53 -86 0
-53 -89 0
-53 -92 0
-53 -95 0
-53 -98 0
-56 -59 0
-56 -62 0
-56 -65 0
-56 -68 0
-56 -71 0
-56 -74 0
-56 -77 0
-56 -80 0
-56 -83 0
-56 -86 0
-56 -89 0
-56 -92 0
-56 -95 0
-56 -98 0
-59 -62 0
-59 -65 0
-59 -68 0
-59 -71 0
-59 -74 0
-59 -77 0
-59 -80 0
-59 -83 0
-59 -86 0
-59 -89 0
-59 -92 0
-59 -95 0
-59 -98 0
-62 -65 0
-62 -68 0
-62 -71 0
-62 -74 0
-62 -77 0
-62 -80 0
-62 -83 0
-62 -86 0
-62 -89 0
-62 -92 0
-62 -95 0
-62 -98 0
-65 -68 0
-65 -71 0
-65 -74 0
-65 -77 0
-65 -80 0
-65 -83 0
-65 -86 0
-65 -89 0
-65 -92 0
-65 -95 0
-65 -98 0
-68 -71 0
-68 -74 0
-68 -77 0
-68 -80 0
-68 -83 0
-68 -86 0
-68 -89 0
-68 -92 0
-68 -95 0
-68 -98 0
-71 -74 0
-71 -77 0
-71 -80 0
-71 -83 0
-71 -86 0
-71 -89 0
-71 -92 0
-71 -95 0
-71 -98 0
-74 -77 0
-74 -80 0
-74 -83 0
-74 -86 0
-74 -89 0
-74 -92 0
-74 -95 0
-74 -98 0
-77 -80 0
-77 -83 0
-77 -86 0
-77 -89 0
-77 -92 0
-77 -95 0
-77 -98 0
-80 -83 0
-80 -86 0
-80 -89 0
-80 -92 0
-80 -95 0
-80 -98 0
-83 -86 0
-83 -89 0
-83 -92 0
-83 -95 0
-83 -98 0
-86 -89 0
-86 -92 0
-86 -95 0
-86 -98 0
-89 -92 0
-89 -95 0
-89 -98 0
-92 -95 0
-92 -98 0
-95 -98 0
-3 -6 0
-3 -9 0
-3 -12 0
-3 -15 0
-3 -18 0
-3 -21 0
-3 -24 0
-3 -27 0
-3 -30 0
-3 -33 0
-3 -36 0
-3 -39 0
-3 -42 0
-3 -45 0
-3 -48 0
-3 -51 0
-3 -54 0
-3 -57 0
-3 -60 0
-3 -63 0
-3 -66 0
-3 -69 0
-3 -72 0
-3 -75 0
-3 -78 0
-3 -81 0
-3 -84 0
-3 -87 0
-3 -90 0
-3 -93 0
-3 -96 0
-3 -99 0
-6 -9 0
-6 -12 0
-6 -15 0
-6 -18 0
-6 -21 0
-6 -24 0
-6 -27 0
-6 -30 0
-6 -33 0
-6 -36 0
-6 -39 0
-6 -42 0
-6 -45 0
-6 -48 0
-6 -51 0
-6 -54 0
-6 -57 0
-6 -60 0
-6 -63 0
-6 -66 0
-6 -69 0
-6 -72 0
-6 -75 0
-6 -78 0
-6 -81 0
-6 -84 0
-6 -87 0
-6 -90 0
-6 -93 0
-6 -96 0
-6 -99 0
-9 -12 0
-9 -15 0
-9 -18 0
-9 -21 0
-9 -24 0
-9 -27 0
-9 -30 0
-9 -33 0
-9 -36 0
-9 -39 0
-9 -42 0
-9 -45 0
-9 -48 0
-9 -51 0
-9 -54 0
-9 -57 0
-9 -60 0
-9 -63 0
-9 -66 0
-9 -69 0
-9 -72 0
-9 -75 0
-9 -78 0
-9 -81 0
-9 -84 0
-9 -87 0
-9 -90 0
-9 -93 0
-9 -96 0
-9 -99 0
-12 -15 0
-12 -18 0
-12 -21 0
-12 -24 0
-12 -27 0
-12 -30 0
-12 -33 0
-12 -36 0
-12 -39 0
-12 -42 0
-12 -45 0
-12 -48 0
-12 -51 0
-12 -54 0
-12 -57 0
-12 -60 0
-12 -63 0
-12 -66 0
-12 -69 0
-12 -72 0
-12 -75 0
-12 -78 0
-12 -81 0
-12 -84 0
-12 -87 0
-12 -90 0
-12 -93 0
-12 -96 0
-12 -99 0
-15 -18 0
-15 -21 0
-15 -24 0
-15 -27 0
-15 -30 0
-15 -33 0
-15 -36 0
-15 -39 0
-15 -42 0
-15 -45 0
-15 -48 0
-15 -51 0
-15 -54 0
-15 -57 0
-15 -60 0
-15 -63 0
-15 -66 0
-15 -69 0
-15 -72 0
-15 -75 0
-15 -78 0
-15 -81 0
-15 -84 0
-15 -87 0
-15 -90 0
-15 -93 0
-15 -96 0
-15 -99 0
-18 -21 0
-18 -24 0
-18 -27 0
-18 -30 0
-18 -33 0
-18 -36 0
-18 -39 0
-18 -42 0
-18 -45 0
-18 -48 0
-18 -51 0
-18 -54 0
-18 -57 0
-18 -60 0
-18 -63 0
-18 -66 0
-18 -69 0
-18 -72 0
-18 -75 0
-18 -78 0
-18 -81 0
-18 -84 0
-18 -87 0
-18 -90 0
-18 -93 0
-18 -96 0
-18 -99 0
-21 -24 0
-21 -27 0
-21 -30 0
-21 -33 0
-21 -36 0
-21 -39 0
-21 -42 0
-21 -45 0
-21 -48 0
-21 -51 0
-21 -54 0
-21 -57 0
-21 -60 0
-21 -63 0
-21 -66 0
-21 -69 0
-21 -72 0
-21 -75 0
-21 -78 0
-21 -81 0
-21 -84 0
-21 -87 0
-21 -90 0
-21 -93 0
-21 -96 0
-21 -99 0
-24 -27 0
-24 -30 0
-24 -33 0
-24 -36 0
-24 -39 0
-24 -42 0
-24 -45 0
-24 -48 0
-24 -51 0
-24 -54 0
-24 -57 0
-24 -60 0
-24 -63 0
-24 -66 0
-24 -69 0
-24 -72 0
-24 -75 0
-24 -78 0
-24 -81 0
-24 -84 0
-24 -87 0
-24 -90 0
-24 -93 0
-24 -96 0
-24 -99 0
-27 -30 0
-27 -33 0
-27 -36 0
-27 -39 0
-27 -42 0
-27 -45 0
-27 -48 0
-27 -51 0
-27 -54 0
-27 -57 0
-27 -60 0
-27 -63 0
-27 -66 0
-27 -69 0
-27 -72 0
-27 -75 0
-27 -78 0
-27 -81 0
-27 -84 0
-27 -87 0
-27 -90 0
-27 -93 0
-27 -96 0
-27 -99 0
-30 -33 0
-30 -36 0
-30 -39 0
-30 -42 0
-30 -45 0
-30 -48 0
-30 -51 0
-30 -54 0
-30 -57 0
-30 -60 0
-30 -63 0
-30 -66 0
-30 -69 0
-30 -72 0
-30 -75 0
-30 -78 0
-30 -81 0
-30 -84 0
-30 -87 0
-30 -90 0
-30 -93 0
-30 -96 0
-30 -99 0
-33 -36 0
-33 -39 0
-33 -42 0
-33 -45 0
-33 -48 0
-33 -51 0
-33 -54 0
-33 -57 0
-33 -60 0
-33 -63 0
-33 -66 0
-33 -69 0
-33 -72 0
-33 -75 0
-33 -78 0
-33 -81 0
-33 -84 0
-33 -87 0
-33 -90 0
-33 -93 0
-33 -96 0
-33 -99 0
-36 -39 0
-36 -42 0
-36 -45 0
-36 -48 0
-36 -51 0
-36 -54 0
-36 -57 0
-36 -60 0
-36 -63 0
-36 -66 0
-36 -69 0
-36 -72 0
-36 -75 0
-36 -78 0
-36 -81 0
-36 -84 0
-36 -87 0
-36 -90 0
-36 -93 0
-36 -96 0
-36 -99 0
-39 -42 0
-39 -45 0
-39 -48 0
-39 -51 0
-39 -54 0
-39 -57 0
-39 -60 0
-39 -63 0
-39 -66 0
-39 -69 0
-39 -72 0
-39 -75 0
-39 -78 0
-39 -81 0
-39 -84 0
-39 -87 0
-39 -90 0
-39 -93 0
-39 -96 0
-39 -99 0
-42 -45 0
-42 -48 0
-42 -51 0
-42 -54 0
-42 -57 0
-42 -60 0
-42 -63 0
-42 -66 0
-42 -69 0
-42 -72 0
-42 -75 0
-42 -78 0
-42 -81 0
-42 -84 0
-42 -87 0
-42 -90 0
-42 -93 0
-42 -96 0
-42 -99 0
-45 -48 0
-45 -51 0
-45 -54 0
-45 -57 0
-45 -60 0
-45 -63 0
-45 -66 0
-45 -69 0
-45 -72 0
-45 -75 0
-45 -78 0
-45 -81 0
-45 -84 0
-45 -87 0
-45 -90 0
-45 -93 0
-45 -96 0
-45 -99 0
-48 -51 0
-48 -54 0
-48 -57 0
-48 -60 0
-48 -63 0
-48 -66 0
-48 -69 0
-48 -72 0
-48 -75 0
-48 -78 0
-48 -81 0
-48 -84 0
-48 -87 0
-48 -90 0
-48 -93 0
-48 -96 0
-48 -99 0
-51 -54 0
-51 -57 0
-51 -60 0
-51 -63 0
-51 -66 0
-51 -69 0
-51 -72 0
-51 -75 0
-51 -78 0
-51 -81 0
-51 -84 0
-51 -87 0
-51 -90 0
-51 -93 0
-51 -96 0
-51 -99 0
-54 -57 0
-54 -60 0
-54 -63 0
-54 -66 0
-54 -69 0
-54 -72 0
-54 -75 0
-54 -78 0
-54 -81 0
-54 -84 0
-54 -87 0
-54 -90 0
-54 -93 0
-54 -96 0
-54 -99 0
-57 -60 0
-57 -63 0
-57 -66 0
-57 -69 0
-57 -72 0
-57 -75 0
-57 -78 0
-57 -81 0
-57 -84 0
-57 -87 0
-57 -90 0
-57 -93 0
-57 -96 0
-57 -99 0
-60 -63 0
-60 -66 0
-60 -69 0
-60 -72 0
-60 -75 0
-60 -78 0
-60 -81 0
-60 -84 0
-60 -87 0
-60 -90 0
-60 -93 0
-60 -96 0
-60 -99 0
-63 -66 0
-63 -69 0
-63 -72 0
-63 -75 0
-63 -78 0
-63 -81 0
-63 -84 0
-63 -87 0
-63 -90 0
-63 -93 0
-63 -96 0
-63 -99 0
-66 -69 0
-66 -72 0
-66 -75 0
-66 -78 0
-66 -81 0
-66 -84 0
-66 -87 0
-66 -90 0
-66 -93 0
-66 -96 0
-66 -99 0
-69 -72 0
-69 -75 0
-69 -78 0
-69 -81 0
-69 -84 0
-69 -87 0
-69 -90 0
-69 -93 0
-69 -96 0
-69 -99 0
-72 -75 0
-72 -78 0
-72 -81 0
-72 -84 0
-72 -87 0
-72 -90 0
-72 -93 0
-72 -96 0
-72 -99 0
-75 -78 0
-75 -81 0
-75 -84 0
-75 -87 0
-75 -90 0
-75 -93 0
-75 -96 0
-75 -99 0
-78 -81 0
-78 -84 0
-78 -87 0
-78 -90 0
-78 -93 0
-78 -96 0
-78 -99 0
-81 -84 0
-81 -87 0
-81 -90 0
-81 -93 0
-81 -96 0
-81 -99 0
-84 -87 0
-84 -90 0
-84 -93 0
-84 -96 0
-84 -99 0
-87 -90 0
-87 -93 0
-87 -96 0
-87 -99 0
-90 -93 0
-90 -96 0
-90 -99 0
-93 -96 0
-93 -99 0
-96 -99 0
